NAME 
OBJSENSE MAX
ROWS
 N  OBJ
 L  packing[0]
 L  packing[1]
 L  packing[2]
 L  packing[3]
 L  packing[4]
 L  packing[5]
 L  packing[6]
 L  packing[7]
 L  packing[8]
 L  packing[9]
 L  packing[10]
 L  packing[11]
 L  packing[12]
 L  packing[13]
 L  packing[14]
 L  packing[15]
 L  packing[16]
 L  packing[17]
 L  packing[18]
 L  packing[19]
 L  packing[20]
 L  packing[21]
 L  packing[22]
 L  packing[23]
 L  packing[24]
 L  packing[25]
 L  packing[26]
 L  packing[27]
 L  packing[28]
 L  packing[29]
 L  packing[30]
 L  packing[31]
 L  packing[32]
 L  packing[33]
 L  packing[34]
 L  packing[35]
 L  packing[36]
 L  packing[37]
 L  packing[38]
 L  packing[39]
 L  packing[40]
 L  packing[41]
 L  packing[42]
 L  packing[43]
 L  packing[44]
 L  packing[45]
 L  packing[46]
 L  packing[47]
 L  packing[48]
 L  packing[49]
 L  R67     
 L  R68     
 L  R69     
 L  R70     
 L  R71     
 L  R72     
 L  R73     
 L  R74     
 L  R75     
 L  R76     
 L  R77     
 L  R78     
 L  R79     
 L  R80     
 L  R81     
 L  R82     
 L  R83     
COLUMNS
    MARKER    'MARKER'                 'INTORG'
    x[1]      OBJ       118
    x[1]      packing[2]  51
    x[1]      packing[3]  1
    x[1]      packing[4]  108
    x[1]      packing[6]  168
    x[1]      packing[7]  121
    x[1]      packing[8]  135
    x[1]      packing[9]  191
    x[1]      packing[10]  92
    x[1]      packing[12]  78
    x[1]      packing[13]  4
    x[1]      packing[14]  67
    x[1]      packing[17]  40
    x[1]      packing[18]  161
    x[1]      packing[19]  195
    x[1]      packing[22]  140
    x[1]      packing[23]  77
    x[1]      packing[24]  109
    x[1]      packing[25]  84
    x[1]      packing[26]  174
    x[1]      packing[27]  70
    x[1]      packing[28]  106
    x[1]      packing[29]  82
    x[1]      packing[30]  140
    x[1]      packing[31]  39
    x[1]      packing[32]  187
    x[1]      packing[33]  98
    x[1]      packing[34]  7
    x[1]      packing[35]  12
    x[1]      packing[36]  51
    x[1]      packing[37]  53
    x[1]      packing[38]  160
    x[1]      packing[39]  118
    x[1]      packing[41]  18
    x[1]      packing[42]  108
    x[1]      packing[45]  1
    x[1]      packing[46]  23
    x[1]      packing[47]  15
    x[1]      packing[49]  123
    x[1]      R67       1
    x[1]      R68       1
    x[1]      R69       1
    x[1]      R70       1
    x[1]      R71       1
    x[1]      R73       1
    x[1]      R74       1
    x[1]      R76       1
    x[1]      R78       1
    x[1]      R79       1
    x[1]      R82       1
    x[2]      OBJ       38
    x[2]      packing[2]  39
    x[2]      packing[3]  172
    x[2]      packing[5]  146
    x[2]      packing[6]  29
    x[2]      packing[7]  80
    x[2]      packing[9]  40
    x[2]      packing[10]  158
    x[2]      packing[11]  186
    x[2]      packing[13]  144
    x[2]      packing[14]  179
    x[2]      packing[15]  131
    x[2]      packing[16]  147
    x[2]      packing[17]  44
    x[2]      packing[19]  125
    x[2]      packing[20]  60
    x[2]      packing[22]  20
    x[2]      packing[23]  103
    x[2]      packing[24]  58
    x[2]      packing[25]  145
    x[2]      packing[26]  131
    x[2]      packing[27]  86
    x[2]      packing[28]  110
    x[2]      packing[29]  83
    x[2]      packing[30]  122
    x[2]      packing[31]  59
    x[2]      packing[32]  126
    x[2]      packing[33]  127
    x[2]      packing[34]  161
    x[2]      packing[35]  100
    x[2]      packing[36]  126
    x[2]      packing[37]  27
    x[2]      packing[38]  72
    x[2]      packing[39]  23
    x[2]      packing[42]  64
    x[2]      packing[43]  177
    x[2]      packing[44]  44
    x[2]      packing[45]  123
    x[2]      packing[46]  61
    x[2]      packing[47]  104
    x[3]      OBJ       14
    x[3]      packing[2]  125
    x[3]      packing[3]  105
    x[3]      packing[4]  67
    x[3]      packing[7]  168
    x[3]      packing[9]  142
    x[3]      packing[10]  81
    x[3]      packing[11]  150
    x[3]      packing[12]  129
    x[3]      packing[13]  164
    x[3]      packing[15]  108
    x[3]      packing[18]  62
    x[3]      packing[19]  56
    x[3]      packing[20]  88
    x[3]      packing[22]  174
    x[3]      packing[23]  76
    x[3]      packing[24]  100
    x[3]      packing[25]  110
    x[3]      packing[26]  80
    x[3]      packing[27]  91
    x[3]      packing[29]  97
    x[3]      packing[30]  4
    x[3]      packing[32]  53
    x[3]      packing[33]  12
    x[3]      packing[35]  119
    x[3]      packing[38]  95
    x[3]      packing[40]  155
    x[3]      packing[41]  64
    x[3]      packing[42]  51
    x[3]      packing[43]  178
    x[3]      packing[44]  178
    x[3]      packing[45]  15
    x[3]      packing[47]  174
    x[3]      packing[48]  90
    x[3]      packing[49]  105
    x[4]      OBJ       62
    x[4]      packing[1]  76
    x[4]      packing[2]  63
    x[4]      packing[3]  90
    x[4]      packing[5]  21
    x[4]      packing[6]  198
    x[4]      packing[7]  35
    x[4]      packing[8]  147
    x[4]      packing[9]  47
    x[4]      packing[11]  68
    x[4]      packing[12]  3
    x[4]      packing[15]  23
    x[4]      packing[16]  154
    x[4]      packing[17]  80
    x[4]      packing[18]  36
    x[4]      packing[20]  145
    x[4]      packing[21]  168
    x[4]      packing[22]  147
    x[4]      packing[23]  4
    x[4]      packing[24]  53
    x[4]      packing[25]  109
    x[4]      packing[26]  45
    x[4]      packing[27]  78
    x[4]      packing[28]  144
    x[4]      packing[29]  107
    x[4]      packing[30]  196
    x[4]      packing[32]  65
    x[4]      packing[34]  117
    x[4]      packing[35]  148
    x[4]      packing[36]  21
    x[4]      packing[38]  194
    x[4]      packing[39]  141
    x[4]      packing[41]  107
    x[4]      packing[42]  122
    x[4]      packing[43]  112
    x[4]      packing[44]  118
    x[4]      packing[45]  35
    x[4]      packing[46]  190
    x[4]      packing[48]  79
    x[4]      packing[49]  126
    x[5]      OBJ       30
    x[5]      packing[2]  129
    x[5]      packing[3]  59
    x[5]      packing[4]  165
    x[5]      packing[6]  19
    x[5]      packing[7]  27
    x[5]      packing[8]  176
    x[5]      packing[10]  34
    x[5]      packing[12]  144
    x[5]      packing[13]  164
    x[5]      packing[14]  180
    x[5]      packing[18]  121
    x[5]      packing[19]  88
    x[5]      packing[20]  173
    x[5]      packing[24]  148
    x[5]      packing[25]  10
    x[5]      packing[26]  69
    x[5]      packing[27]  69
    x[5]      packing[28]  127
    x[5]      packing[29]  167
    x[5]      packing[30]  94
    x[5]      packing[31]  169
    x[5]      packing[32]  65
    x[5]      packing[33]  196
    x[5]      packing[34]  40
    x[5]      packing[35]  67
    x[5]      packing[37]  85
    x[5]      packing[38]  157
    x[5]      packing[39]  61
    x[5]      packing[40]  67
    x[5]      packing[42]  24
    x[5]      packing[43]  113
    x[5]      packing[47]  157
    x[5]      packing[48]  192
    x[6]      OBJ       184
    x[6]      packing[0]  49
    x[6]      packing[1]  22
    x[6]      packing[2]  147
    x[6]      packing[4]  61
    x[6]      packing[5]  192
    x[6]      packing[7]  119
    x[6]      packing[8]  72
    x[6]      packing[9]  172
    x[6]      packing[10]  151
    x[6]      packing[11]  97
    x[6]      packing[12]  33
    x[6]      packing[14]  17
    x[6]      packing[15]  95
    x[6]      packing[17]  100
    x[6]      packing[18]  176
    x[6]      packing[20]  111
    x[6]      packing[22]  56
    x[6]      packing[23]  138
    x[6]      packing[24]  19
    x[6]      packing[25]  65
    x[6]      packing[26]  196
    x[6]      packing[29]  96
    x[6]      packing[31]  154
    x[6]      packing[33]  150
    x[6]      packing[34]  53
    x[6]      packing[35]  83
    x[6]      packing[37]  151
    x[6]      packing[38]  10
    x[6]      packing[40]  140
    x[6]      packing[41]  158
    x[6]      packing[42]  42
    x[6]      packing[43]  76
    x[6]      packing[44]  168
    x[6]      packing[45]  178
    x[6]      packing[46]  101
    x[6]      packing[47]  81
    x[6]      packing[48]  163
    x[6]      R67       1
    x[6]      R69       1
    x[6]      R70       1
    x[6]      R71       1
    x[6]      R73       1
    x[6]      R74       1
    x[6]      R75       1
    x[6]      R76       1
    x[6]      R78       1
    x[6]      R80       1
    x[6]      R81       1
    x[6]      R82       1
    x[6]      R83       1
    x[7]      OBJ       73
    x[7]      packing[5]  139
    x[7]      packing[6]  3
    x[7]      packing[7]  76
    x[7]      packing[8]  133
    x[7]      packing[9]  185
    x[7]      packing[10]  56
    x[7]      packing[12]  176
    x[7]      packing[13]  16
    x[7]      packing[14]  136
    x[7]      packing[15]  199
    x[7]      packing[17]  157
    x[7]      packing[18]  32
    x[7]      packing[19]  190
    x[7]      packing[20]  17
    x[7]      packing[22]  147
    x[7]      packing[23]  54
    x[7]      packing[24]  24
    x[7]      packing[26]  90
    x[7]      packing[30]  186
    x[7]      packing[31]  70
    x[7]      packing[32]  83
    x[7]      packing[33]  21
    x[7]      packing[34]  128
    x[7]      packing[36]  191
    x[7]      packing[37]  93
    x[7]      packing[38]  42
    x[7]      packing[39]  56
    x[7]      packing[40]  198
    x[7]      packing[42]  196
    x[7]      packing[43]  109
    x[7]      packing[44]  134
    x[7]      packing[46]  170
    x[7]      packing[47]  57
    x[7]      packing[48]  188
    x[7]      packing[49]  14
    x[8]      OBJ       98
    x[8]      packing[0]  41
    x[8]      packing[1]  43
    x[8]      packing[5]  33
    x[8]      packing[6]  184
    x[8]      packing[8]  52
    x[8]      packing[11]  158
    x[8]      packing[14]  163
    x[8]      packing[15]  69
    x[8]      packing[16]  166
    x[8]      packing[20]  121
    x[8]      packing[22]  7
    x[8]      packing[23]  57
    x[8]      packing[25]  55
    x[8]      packing[26]  67
    x[8]      packing[27]  18
    x[8]      packing[28]  154
    x[8]      packing[29]  132
    x[8]      packing[30]  175
    x[8]      packing[31]  146
    x[8]      packing[33]  13
    x[8]      packing[34]  84
    x[8]      packing[36]  15
    x[8]      packing[37]  89
    x[8]      packing[39]  147
    x[8]      packing[40]  35
    x[8]      packing[42]  157
    x[8]      packing[43]  76
    x[8]      packing[44]  125
    x[8]      packing[45]  44
    x[8]      packing[46]  27
    x[8]      packing[47]  99
    x[8]      packing[48]  110
    x[8]      R68       1
    x[8]      R75       1
    x[8]      R78       1
    x[8]      R79       1
    x[8]      R82       1
    x[8]      R83       1
    x[9]      OBJ       64
    x[9]      packing[1]  179
    x[9]      packing[2]  55
    x[9]      packing[3]  16
    x[9]      packing[4]  43
    x[9]      packing[5]  4
    x[9]      packing[6]  155
    x[9]      packing[8]  127
    x[9]      packing[9]  23
    x[9]      packing[11]  127
    x[9]      packing[12]  96
    x[9]      packing[13]  138
    x[9]      packing[16]  43
    x[9]      packing[17]  44
    x[9]      packing[18]  68
    x[9]      packing[19]  109
    x[9]      packing[21]  129
    x[9]      packing[22]  25
    x[9]      packing[23]  79
    x[9]      packing[24]  25
    x[9]      packing[26]  51
    x[9]      packing[27]  32
    x[9]      packing[34]  37
    x[9]      packing[35]  103
    x[9]      packing[36]  62
    x[9]      packing[38]  16
    x[9]      packing[39]  182
    x[9]      packing[40]  49
    x[9]      packing[41]  120
    x[9]      packing[42]  73
    x[9]      packing[43]  5
    x[9]      packing[45]  56
    x[9]      packing[46]  160
    x[9]      packing[47]  198
    x[9]      packing[48]  152
    x[9]      packing[49]  190
    x[10]     OBJ       155
    x[10]     packing[0]  65
    x[10]     packing[1]  133
    x[10]     packing[3]  112
    x[10]     packing[4]  151
    x[10]     packing[6]  2
    x[10]     packing[7]  99
    x[10]     packing[8]  66
    x[10]     packing[9]  73
    x[10]     packing[11]  13
    x[10]     packing[12]  45
    x[10]     packing[15]  8
    x[10]     packing[16]  191
    x[10]     packing[17]  35
    x[10]     packing[21]  56
    x[10]     packing[22]  72
    x[10]     packing[24]  28
    x[10]     packing[25]  191
    x[10]     packing[26]  120
    x[10]     packing[27]  36
    x[10]     packing[28]  74
    x[10]     packing[29]  168
    x[10]     packing[30]  41
    x[10]     packing[31]  99
    x[10]     packing[32]  165
    x[10]     packing[33]  182
    x[10]     packing[34]  46
    x[10]     packing[35]  99
    x[10]     packing[36]  28
    x[10]     packing[37]  63
    x[10]     packing[38]  50
    x[10]     packing[39]  147
    x[10]     packing[40]  50
    x[10]     packing[42]  184
    x[10]     packing[43]  15
    x[10]     packing[44]  113
    x[10]     packing[45]  165
    x[10]     packing[47]  16
    x[10]     packing[48]  56
    x[10]     packing[49]  94
    x[10]     R67       1
    x[10]     R68       1
    x[10]     R69       1
    x[10]     R70       1
    x[10]     R72       1
    x[10]     R73       1
    x[10]     R74       1
    x[10]     R75       1
    x[10]     R76       1
    x[10]     R77       1
    x[10]     R78       1
    x[10]     R79       1
    x[10]     R80       1
    x[10]     R82       1
    x[10]     R83       1
    x[11]     OBJ       63
    x[11]     packing[1]  55
    x[11]     packing[2]  5
    x[11]     packing[3]  87
    x[11]     packing[4]  132
    x[11]     packing[7]  67
    x[11]     packing[9]  3
    x[11]     packing[10]  109
    x[11]     packing[11]  68
    x[11]     packing[13]  46
    x[11]     packing[14]  187
    x[11]     packing[15]  58
    x[11]     packing[16]  135
    x[11]     packing[17]  53
    x[11]     packing[18]  91
    x[11]     packing[19]  39
    x[11]     packing[20]  170
    x[11]     packing[21]  30
    x[11]     packing[22]  112
    x[11]     packing[24]  146
    x[11]     packing[25]  3
    x[11]     packing[26]  188
    x[11]     packing[27]  121
    x[11]     packing[28]  53
    x[11]     packing[29]  65
    x[11]     packing[30]  99
    x[11]     packing[31]  76
    x[11]     packing[32]  173
    x[11]     packing[33]  29
    x[11]     packing[34]  73
    x[11]     packing[35]  189
    x[11]     packing[36]  189
    x[11]     packing[37]  13
    x[11]     packing[39]  146
    x[11]     packing[41]  21
    x[11]     packing[42]  13
    x[11]     packing[44]  53
    x[11]     packing[45]  92
    x[11]     packing[47]  21
    x[11]     packing[49]  12
    x[11]     R77       1
    x[12]     OBJ       187
    x[12]     packing[1]  89
    x[12]     packing[2]  100
    x[12]     packing[3]  24
    x[12]     packing[4]  127
    x[12]     packing[5]  84
    x[12]     packing[8]  18
    x[12]     packing[10]  20
    x[12]     packing[12]  115
    x[12]     packing[13]  87
    x[12]     packing[14]  122
    x[12]     packing[15]  55
    x[12]     packing[16]  83
    x[12]     packing[17]  79
    x[12]     packing[18]  41
    x[12]     packing[20]  31
    x[12]     packing[21]  84
    x[12]     packing[22]  168
    x[12]     packing[23]  35
    x[12]     packing[24]  1
    x[12]     packing[25]  32
    x[12]     packing[26]  189
    x[12]     packing[27]  35
    x[12]     packing[28]  12
    x[12]     packing[29]  31
    x[12]     packing[31]  144
    x[12]     packing[32]  36
    x[12]     packing[33]  19
    x[12]     packing[35]  45
    x[12]     packing[36]  183
    x[12]     packing[37]  106
    x[12]     packing[38]  72
    x[12]     packing[39]  167
    x[12]     packing[40]  118
    x[12]     packing[41]  49
    x[12]     packing[42]  35
    x[12]     packing[43]  10
    x[12]     packing[45]  71
    x[12]     packing[46]  38
    x[12]     packing[48]  50
    x[12]     packing[49]  40
    x[12]     R67       1
    x[12]     R70       1
    x[12]     R71       1
    x[12]     R72       1
    x[12]     R73       1
    x[12]     R74       1
    x[12]     R75       1
    x[12]     R76       1
    x[12]     R77       1
    x[12]     R78       1
    x[12]     R79       1
    x[12]     R80       1
    x[12]     R81       1
    x[12]     R82       1
    x[13]     OBJ       158
    x[13]     packing[0]  51
    x[13]     packing[3]  39
    x[13]     packing[4]  33
    x[13]     packing[5]  95
    x[13]     packing[6]  151
    x[13]     packing[7]  14
    x[13]     packing[8]  30
    x[13]     packing[9]  46
    x[13]     packing[10]  66
    x[13]     packing[11]  27
    x[13]     packing[13]  140
    x[13]     packing[14]  82
    x[13]     packing[15]  76
    x[13]     packing[17]  34
    x[13]     packing[18]  39
    x[13]     packing[19]  15
    x[13]     packing[20]  167
    x[13]     packing[21]  196
    x[13]     packing[22]  57
    x[13]     packing[23]  98
    x[13]     packing[25]  195
    x[13]     packing[26]  126
    x[13]     packing[27]  151
    x[13]     packing[29]  125
    x[13]     packing[30]  92
    x[13]     packing[32]  78
    x[13]     packing[33]  161
    x[13]     packing[34]  37
    x[13]     packing[35]  54
    x[13]     packing[39]  152
    x[13]     packing[40]  100
    x[13]     packing[41]  100
    x[13]     packing[42]  96
    x[13]     packing[43]  68
    x[13]     packing[44]  49
    x[13]     packing[45]  146
    x[13]     packing[46]  96
    x[13]     packing[47]  16
    x[13]     packing[48]  68
    x[13]     R67       1
    x[13]     R68       1
    x[13]     R70       1
    x[13]     R72       1
    x[13]     R73       1
    x[13]     R74       1
    x[13]     R76       1
    x[13]     R79       1
    x[13]     R80       1
    x[13]     R81       1
    x[13]     R82       1
    x[13]     R83       1
    x[14]     OBJ       97
    x[14]     packing[1]  138
    x[14]     packing[2]  42
    x[14]     packing[7]  165
    x[14]     packing[8]  79
    x[14]     packing[10]  71
    x[14]     packing[12]  157
    x[14]     packing[13]  117
    x[14]     packing[16]  70
    x[14]     packing[17]  118
    x[14]     packing[18]  13
    x[14]     packing[19]  183
    x[14]     packing[20]  43
    x[14]     packing[21]  142
    x[14]     packing[22]  18
    x[14]     packing[23]  30
    x[14]     packing[24]  53
    x[14]     packing[25]  93
    x[14]     packing[29]  41
    x[14]     packing[30]  153
    x[14]     packing[31]  190
    x[14]     packing[32]  178
    x[14]     packing[35]  48
    x[14]     packing[38]  148
    x[14]     packing[39]  179
    x[14]     packing[40]  42
    x[14]     packing[41]  32
    x[14]     packing[42]  156
    x[14]     packing[44]  2
    x[14]     packing[45]  112
    x[14]     packing[46]  31
    x[14]     packing[47]  152
    x[14]     packing[48]  95
    x[14]     packing[49]  193
    x[14]     R69       1
    x[14]     R70       1
    x[14]     R72       1
    x[14]     R74       1
    x[14]     R75       1
    x[14]     R79       1
    x[14]     R82       1
    x[15]     OBJ       9
    x[15]     packing[0]  156
    x[15]     packing[1]  147
    x[15]     packing[2]  72
    x[15]     packing[4]  117
    x[15]     packing[5]  122
    x[15]     packing[8]  183
    x[15]     packing[9]  10
    x[15]     packing[11]  197
    x[15]     packing[12]  76
    x[15]     packing[14]  167
    x[15]     packing[15]  159
    x[15]     packing[16]  13
    x[15]     packing[17]  56
    x[15]     packing[18]  89
    x[15]     packing[19]  68
    x[15]     packing[20]  37
    x[15]     packing[21]  56
    x[15]     packing[22]  27
    x[15]     packing[23]  25
    x[15]     packing[25]  175
    x[15]     packing[26]  76
    x[15]     packing[27]  133
    x[15]     packing[28]  61
    x[15]     packing[29]  161
    x[15]     packing[30]  159
    x[15]     packing[31]  167
    x[15]     packing[32]  25
    x[15]     packing[33]  43
    x[15]     packing[34]  176
    x[15]     packing[35]  19
    x[15]     packing[37]  121
    x[15]     packing[38]  62
    x[15]     packing[39]  103
    x[15]     packing[40]  15
    x[15]     packing[41]  53
    x[15]     packing[43]  82
    x[15]     packing[44]  97
    x[15]     packing[46]  146
    x[15]     packing[47]  36
    x[15]     packing[48]  1
    x[15]     packing[49]  30
    x[16]     OBJ       143
    x[16]     packing[0]  28
    x[16]     packing[1]  135
    x[16]     packing[2]  7
    x[16]     packing[4]  190
    x[16]     packing[5]  69
    x[16]     packing[6]  185
    x[16]     packing[7]  69
    x[16]     packing[9]  48
    x[16]     packing[10]  91
    x[16]     packing[11]  82
    x[16]     packing[12]  193
    x[16]     packing[13]  114
    x[16]     packing[14]  86
    x[16]     packing[15]  48
    x[16]     packing[17]  186
    x[16]     packing[20]  142
    x[16]     packing[21]  120
    x[16]     packing[22]  114
    x[16]     packing[24]  198
    x[16]     packing[27]  95
    x[16]     packing[29]  38
    x[16]     packing[30]  38
    x[16]     packing[32]  80
    x[16]     packing[34]  141
    x[16]     packing[36]  199
    x[16]     packing[37]  44
    x[16]     packing[38]  42
    x[16]     packing[39]  184
    x[16]     packing[40]  67
    x[16]     packing[42]  151
    x[16]     packing[43]  191
    x[16]     packing[44]  179
    x[16]     packing[46]  176
    x[16]     packing[47]  9
    x[16]     packing[48]  58
    x[16]     R67       1
    x[16]     R68       1
    x[16]     R69       1
    x[16]     R70       1
    x[16]     R72       1
    x[16]     R73       1
    x[16]     R77       1
    x[16]     R78       1
    x[16]     R79       1
    x[16]     R80       1
    x[16]     R82       1
    x[16]     R83       1
    x[17]     OBJ       136
    x[17]     packing[0]  95
    x[17]     packing[1]  171
    x[17]     packing[4]  142
    x[17]     packing[5]  52
    x[17]     packing[6]  122
    x[17]     packing[8]  104
    x[17]     packing[9]  70
    x[17]     packing[11]  162
    x[17]     packing[12]  63
    x[17]     packing[13]  131
    x[17]     packing[14]  144
    x[17]     packing[15]  165
    x[17]     packing[16]  74
    x[17]     packing[17]  105
    x[17]     packing[19]  21
    x[17]     packing[20]  159
    x[17]     packing[21]  53
    x[17]     packing[22]  149
    x[17]     packing[23]  120
    x[17]     packing[25]  91
    x[17]     packing[26]  5
    x[17]     packing[27]  12
    x[17]     packing[30]  131
    x[17]     packing[31]  149
    x[17]     packing[33]  118
    x[17]     packing[34]  18
    x[17]     packing[35]  65
    x[17]     packing[36]  73
    x[17]     packing[37]  19
    x[17]     packing[38]  133
    x[17]     packing[39]  22
    x[17]     packing[40]  114
    x[17]     packing[41]  51
    x[17]     packing[42]  5
    x[17]     packing[43]  145
    x[17]     packing[44]  26
    x[17]     packing[45]  49
    x[17]     packing[47]  19
    x[17]     packing[48]  157
    x[17]     packing[49]  108
    x[17]     R67       1
    x[17]     R68       1
    x[17]     R70       1
    x[17]     R72       1
    x[17]     R73       1
    x[17]     R74       1
    x[17]     R75       1
    x[17]     R76       1
    x[17]     R78       1
    x[17]     R80       1
    x[17]     R83       1
    x[18]     OBJ       22
    x[18]     packing[0]  183
    x[18]     packing[1]  142
    x[18]     packing[2]  111
    x[18]     packing[3]  77
    x[18]     packing[4]  103
    x[18]     packing[5]  190
    x[18]     packing[6]  17
    x[18]     packing[8]  94
    x[18]     packing[9]  123
    x[18]     packing[12]  84
    x[18]     packing[14]  101
    x[18]     packing[16]  198
    x[18]     packing[17]  188
    x[18]     packing[20]  84
    x[18]     packing[21]  74
    x[18]     packing[22]  34
    x[18]     packing[23]  166
    x[18]     packing[24]  10
    x[18]     packing[26]  192
    x[18]     packing[27]  4
    x[18]     packing[29]  178
    x[18]     packing[30]  13
    x[18]     packing[31]  125
    x[18]     packing[33]  11
    x[18]     packing[34]  121
    x[18]     packing[37]  160
    x[18]     packing[39]  30
    x[18]     packing[42]  171
    x[18]     packing[43]  183
    x[18]     packing[45]  69
    x[18]     packing[46]  130
    x[18]     packing[47]  5
    x[18]     packing[48]  175
    x[19]     OBJ       145
    x[19]     packing[0]  114
    x[19]     packing[1]  33
    x[19]     packing[2]  104
    x[19]     packing[5]  162
    x[19]     packing[6]  140
    x[19]     packing[7]  35
    x[19]     packing[8]  56
    x[19]     packing[10]  59
    x[19]     packing[11]  112
    x[19]     packing[12]  173
    x[19]     packing[13]  13
    x[19]     packing[14]  166
    x[19]     packing[16]  143
    x[19]     packing[17]  30
    x[19]     packing[18]  182
    x[19]     packing[19]  171
    x[19]     packing[21]  44
    x[19]     packing[22]  21
    x[19]     packing[23]  65
    x[19]     packing[24]  133
    x[19]     packing[25]  78
    x[19]     packing[26]  79
    x[19]     packing[27]  11
    x[19]     packing[28]  13
    x[19]     packing[29]  62
    x[19]     packing[32]  62
    x[19]     packing[33]  30
    x[19]     packing[34]  29
    x[19]     packing[35]  63
    x[19]     packing[38]  114
    x[19]     packing[40]  121
    x[19]     packing[41]  177
    x[19]     packing[43]  169
    x[19]     packing[44]  16
    x[19]     packing[45]  114
    x[19]     packing[46]  87
    x[19]     packing[47]  112
    x[19]     packing[49]  172
    x[19]     R71       1
    x[19]     R80       1
    x[19]     R81       1
    x[20]     OBJ       160
    x[20]     packing[0]  186
    x[20]     packing[1]  139
    x[20]     packing[2]  106
    x[20]     packing[3]  24
    x[20]     packing[4]  148
    x[20]     packing[5]  9
    x[20]     packing[6]  188
    x[20]     packing[8]  154
    x[20]     packing[9]  171
    x[20]     packing[10]  101
    x[20]     packing[11]  196
    x[20]     packing[12]  163
    x[20]     packing[13]  97
    x[20]     packing[15]  148
    x[20]     packing[19]  133
    x[20]     packing[20]  40
    x[20]     packing[21]  98
    x[20]     packing[23]  182
    x[20]     packing[24]  153
    x[20]     packing[25]  8
    x[20]     packing[26]  149
    x[20]     packing[27]  169
    x[20]     packing[28]  20
    x[20]     packing[29]  173
    x[20]     packing[30]  199
    x[20]     packing[31]  42
    x[20]     packing[32]  165
    x[20]     packing[33]  161
    x[20]     packing[34]  89
    x[20]     packing[35]  41
    x[20]     packing[36]  20
    x[20]     packing[37]  19
    x[20]     packing[38]  189
    x[20]     packing[39]  193
    x[20]     packing[40]  42
    x[20]     packing[42]  104
    x[20]     packing[43]  118
    x[20]     packing[44]  13
    x[20]     packing[45]  196
    x[20]     packing[48]  2
    x[20]     packing[49]  198
    MARKER    'MARKER'                 'INTEND'
RHS
    RHS1      packing[0]  484
    RHS1      packing[1]  751
    RHS1      packing[2]  578
    RHS1      packing[3]  403
    RHS1      packing[4]  794
    RHS1      packing[5]  659
    RHS1      packing[6]  781
    RHS1      packing[7]  538
    RHS1      packing[8]  813
    RHS1      packing[9]  672
    RHS1      packing[10]  545
    RHS1      packing[11]  822
    RHS1      packing[12]  864
    RHS1      packing[13]  688
    RHS1      packing[14]  899
    RHS1      packing[15]  671
    RHS1      packing[16]  709
    RHS1      packing[17]  675
    RHS1      packing[18]  556
    RHS1      packing[19]  697
    RHS1      packing[20]  794
    RHS1      packing[21]  625
    RHS1      packing[22]  744
    RHS1      packing[23]  655
    RHS1      packing[24]  629
    RHS1      packing[25]  722
    RHS1      packing[26]  1014
    RHS1      packing[27]  606
    RHS1      packing[28]  437
    RHS1      packing[29]  903
    RHS1      packing[30]  921
    RHS1      packing[31]  815
    RHS1      packing[32]  771
    RHS1      packing[33]  686
    RHS1      packing[34]  679
    RHS1      packing[35]  628
    RHS1      packing[36]  579
    RHS1      packing[37]  522
    RHS1      packing[38]  778
    RHS1      packing[39]  1026
    RHS1      packing[40]  657
    RHS1      packing[41]  475
    RHS1      packing[42]  876
    RHS1      packing[43]  914
    RHS1      packing[44]  658
    RHS1      packing[45]  733
    RHS1      packing[46]  718
    RHS1      packing[47]  636
    RHS1      packing[48]  818
    RHS1      packing[49]  703
    RHS1      R67       6
    RHS1      R68       5
    RHS1      R69       4
    RHS1      R70       7
    RHS1      R71       3
    RHS1      R72       5
    RHS1      R73       6
    RHS1      R74       6
    RHS1      R75       5
    RHS1      R76       5
    RHS1      R77       3
    RHS1      R78       6
    RHS1      R79       6
    RHS1      R80       6
    RHS1      R81       3
    RHS1      R82       7
    RHS1      R83       5
BOUNDS
 BV BND1      x[1]    
 BV BND1      x[2]    
 BV BND1      x[3]    
 BV BND1      x[4]    
 BV BND1      x[5]    
 BV BND1      x[6]    
 BV BND1      x[7]    
 BV BND1      x[8]    
 BV BND1      x[9]    
 BV BND1      x[10]   
 BV BND1      x[11]   
 BV BND1      x[12]   
 BV BND1      x[13]   
 BV BND1      x[14]   
 BV BND1      x[15]   
 BV BND1      x[16]   
 BV BND1      x[17]   
 BV BND1      x[18]   
 BV BND1      x[19]   
 BV BND1      x[20]   
ENDATA
